c Random Network
p min 10 20
n 1 1
n 10 -1
c Transformed from a max-flow problem.
a 	 7	9	0	17	2
a 	 1	7	0	36	4
a 	 1	2	0	43	6
a 	 1	9	0	15	2
a 	 9	1	0	21	4
a 	 2	1	0	25	6
a 	 7	3	0	13	2
a 	 9	7	0	44	4
a 	 7	8	0	6	6
a 	 6	2	0	11	2
a 	 2	4	0	48	4
a 	 3	4	0	33	6
a 	 7	5	0	17	2
a 	 6	5	0	43	4
a 	 1	3	0	4	6
a 	 4	10	0	3	2
a 	 3	1	0	31	4
a 	 7	1	0	6	6
a 	 1	6	0	29	2
a 	 4	8	0	10	4
